10
20
384739
0
0
32 58 54 53 50 42 56 46 45 53 53 48 62 39 50 37 74 52 40 50
1
0
45 64 42 60 53 43 60 52 44 48 46 51 62 57 47 50 61 54 47 44
2
0
47 45 53 45 48 49 50 46 53 54 57 55 58 47 63 50 52 39 48 30
3
0
54 51 51 37 59 47 65 50 62 57 48 46 49 61 41 47 45 66 60 68
4
0
50 57 55 68 46 64 39 43 53 39 51 52 32 66 64 47 32 54 54 51
5
0
52 47 55 48 66 55 33 45 65 51 42 63 60 52 61 51 48 52 47 66
6
0
55 47 49 51 53 36 45 62 47 45 41 47 62 56 49 53 50 50 47 51
7
0
63 49 65 50 40 52 49 57 41 54 49 57 46 47 65 50 54 58 32 38
8
0
52 50 53 39 42 42 57 31 45 51 34 46 53 62 54 41 48 57 45 52
9
0
62 48 55 69 59 37 49 40 54 47 37 44 61 30 43 49 41 44 41 56
